sat
(:arith-lower         16
 :arith-make-feasible 7
 :arith-max-columns   33
 :arith-max-rows      13
 :arith-upper         24
 :binary-propagations 14
 :conflicts           1
 :decisions           6
 :final-checks        1
 :max-memory          19.02
 :memory              18.69
 :mk-bool-var         42
 :mk-clause-binary    25
 :num-allocs          98199
 :num-checks          1
 :propagations        14
 :rlimit-count        4274
 :solve-eqs-elim-vars 14
 :solve-eqs-steps     44
 :time                0.01
 :total-time          0.11)
